proyfinal/src/viki/013/andrea/andrea-localstore/experimentInOfficeAgust.take6/worker_5/62bc4816-7b22-4280-be50-c08f53b70932.als.cnf.out
Reading from standard input... Use '--help' for help.
============================[ Problem Statistics ]=============================
|                                                                             |
|  Number of variables:         87638                                         |
|  Number of clauses:          161767                                         |
|  Parse time:                   0.04 s                                       |
|                                                                             |
============================[ Search Statistics ]==============================
| Conflicts |          ORIGINAL         |          LEARNT          | Progress |
|           |    Vars  Clauses Literals |    Limit  Clauses Lit/Cl |          |
===============================================================================
|       100 |   63205   108098   270341 |    39635      100     39 | 27.879 % |
|       250 |   63205   108098   270341 |    43599      250     50 | 27.879 % |
|       475 |   63205   108098   270341 |    47959      475     64 | 27.880 % |
|       812 |   63205   108098   270341 |    52755      812     60 | 27.879 % |
|      1318 |   63205   108098   270341 |    58030     1318     82 | 27.879 % |
|      2077 |   63163   107886   269864 |    63834     2074     86 | 27.927 % |
|      3216 |   63163   107886   269864 |    70217     3213     87 | 27.927 % |
|      4924 |   63137   107743   269552 |    77239     4572     83 | 27.957 % |
|      7486 |   63121   107677   269399 |    84963     7132     70 | 27.975 % |
===============================================================================
restarts              : 46
conflicts             : 11116          (5409 /sec)
decisions             : 34359          (0.00 % random) (16720 /sec)
propagations          : 19302296       (9393064 /sec)
conflict literals     : 812807         (57.56 % deleted)
Memory used           : 30.80 MB
CPU time              : 2.05495 s

UNSATISFIABLE
